52 21 31 43 10 65 85 26 8 36 79 87 6 24 37 93 70 42 86 41 77 15 64 66 14 67 61 59 89 78 51 84 73 29 7 18 72 49 32 25 46 62 5 28 97 48 39 54 13 63 50 2 47 69 83 38 45 0 81 16 90 91 82 56 17 1 99 74 68 22 34 12 71 35 9 92 11 4 60 3 19 53 55 75 27 76 95 96 20 80 44 30 98 58 23 40 88 94 57 33 

